119 48 011 1
1
184 113 1
204 114 1
213 115 1
190 116 1
141 117 1
189 118 1
151 119 1
197 108 1
144 109 1
153 110 1
136 111 1
153 112 1
118 113 1
215 114 1
96 115 1
154 116 1
205 117 1
140 118 1
167 119 1
162 108 1
146 109 1
158 110 1
107 111 1
111 112 1
192 113 1
145 114 1
146 115 1
169 116 1
168 117 1
233 118 1
220 119 1
191 108 1
127 109 1
147 110 1
189 111 1
165 112 1
185 113 1
135 114 1
163 115 1
177 116 1
178 117 1
171 118 1
219 119 1
157 108 1
197 109 1
191 110 1
119 111 1
109 112 1
1
1
1
1
1
1
1
1
1
1
1
1
1
1
1
1
1
1
1
1
1
1
1
1
1
1
1
1
1
1
1
1
1
1
1
1
1
1
1
1
1
1
1
1
1
1
1
1
1
1
1
1
1
1
1
1
1
1
1 9 196 21 161 33 190 45 156
1 10 143 22 145 34 126 46 196
1 11 152 23 157 35 146 47 190
1 12 135 24 106 36 188 48 118
1 13 152 25 110 37 164 49 108
1 2 183 14 117 26 191 38 184
1 3 203 15 214 27 144 39 134
1 4 212 16 95 28 145 40 162
1 5 189 17 153 29 168 41 176
1 6 140 18 204 30 167 42 177
1 7 188 19 139 31 232 43 170
1 8 150 20 166 32 219 44 218
